; benchmark generated from python API
(set-info :status unknown)
(declare-fun cell_1_1 () Int)
(declare-fun cell_1_2 () Int)
(declare-fun cell_1_3 () Int)
(declare-fun cell_1_4 () Int)
(declare-fun cell_1_5 () Int)
(declare-fun cell_1_6 () Int)
(declare-fun cell_1_7 () Int)
(declare-fun cell_1_8 () Int)
(declare-fun cell_1_9 () Int)
(declare-fun cell_2_1 () Int)
(declare-fun cell_3_1 () Int)
(declare-fun cell_4_1 () Int)
(declare-fun cell_5_1 () Int)
(declare-fun cell_6_1 () Int)
(declare-fun cell_7_1 () Int)
(declare-fun cell_8_1 () Int)
(declare-fun cell_9_1 () Int)
(declare-fun cell_2_2 () Int)
(declare-fun cell_3_2 () Int)
(declare-fun cell_4_2 () Int)
(declare-fun cell_5_2 () Int)
(declare-fun cell_6_2 () Int)
(declare-fun cell_7_2 () Int)
(declare-fun cell_8_2 () Int)
(declare-fun cell_9_2 () Int)
(declare-fun cell_2_3 () Int)
(declare-fun cell_3_3 () Int)
(declare-fun cell_4_3 () Int)
(declare-fun cell_5_3 () Int)
(declare-fun cell_6_3 () Int)
(declare-fun cell_7_3 () Int)
(declare-fun cell_8_3 () Int)
(declare-fun cell_9_3 () Int)
(declare-fun cell_2_4 () Int)
(declare-fun cell_3_4 () Int)
(declare-fun cell_4_4 () Int)
(declare-fun cell_5_4 () Int)
(declare-fun cell_6_4 () Int)
(declare-fun cell_7_4 () Int)
(declare-fun cell_8_4 () Int)
(declare-fun cell_9_4 () Int)
(declare-fun cell_2_5 () Int)
(declare-fun cell_3_5 () Int)
(declare-fun cell_4_5 () Int)
(declare-fun cell_5_5 () Int)
(declare-fun cell_6_5 () Int)
(declare-fun cell_7_5 () Int)
(declare-fun cell_8_5 () Int)
(declare-fun cell_9_5 () Int)
(declare-fun cell_2_6 () Int)
(declare-fun cell_3_6 () Int)
(declare-fun cell_4_6 () Int)
(declare-fun cell_5_6 () Int)
(declare-fun cell_6_6 () Int)
(declare-fun cell_7_6 () Int)
(declare-fun cell_8_6 () Int)
(declare-fun cell_9_6 () Int)
(declare-fun cell_2_7 () Int)
(declare-fun cell_3_7 () Int)
(declare-fun cell_4_7 () Int)
(declare-fun cell_5_7 () Int)
(declare-fun cell_6_7 () Int)
(declare-fun cell_7_7 () Int)
(declare-fun cell_8_7 () Int)
(declare-fun cell_9_7 () Int)
(declare-fun cell_2_8 () Int)
(declare-fun cell_3_8 () Int)
(declare-fun cell_4_8 () Int)
(declare-fun cell_5_8 () Int)
(declare-fun cell_6_8 () Int)
(declare-fun cell_7_8 () Int)
(declare-fun cell_8_8 () Int)
(declare-fun cell_9_8 () Int)
(declare-fun cell_2_9 () Int)
(declare-fun cell_3_9 () Int)
(declare-fun cell_4_9 () Int)
(declare-fun cell_5_9 () Int)
(declare-fun cell_6_9 () Int)
(declare-fun cell_7_9 () Int)
(declare-fun cell_8_9 () Int)
(declare-fun cell_9_9 () Int)
(assert
 (= cell_1_1 9))
(assert
 (= cell_1_2 5))
(assert
 (= cell_1_3 8))
(assert
 (= cell_1_4 1))
(assert
 (= cell_1_5 3))
(assert
 (= cell_1_6 6))
(assert
 (= cell_1_7 4))
(assert
 (= cell_1_8 7))
(assert
 (= cell_1_9 2))
(assert
 (let (($x740 (= cell_1_1 9)))
 (or (= cell_1_1 1) (= cell_1_1 2) (= cell_1_1 3) (= cell_1_1 4) (= cell_1_1 5) (= cell_1_1 6) (= cell_1_1 7) (= cell_1_1 8) $x740)))
(assert
 (let (($x4913 (= cell_2_1 9)))
 (let (($x5497 (= cell_2_1 8)))
 (let (($x6146 (= cell_2_1 5)))
 (let (($x6900 (= cell_2_1 2)))
 (or (= cell_2_1 1) $x6900 (= cell_2_1 3) (= cell_2_1 4) $x6146 (= cell_2_1 6) (= cell_2_1 7) $x5497 $x4913))))))
(assert
 (let (($x8925 (= cell_3_1 9)))
 (let (($x3773 (= cell_3_1 8)))
 (let (($x8970 (= cell_3_1 5)))
 (or (= cell_3_1 1) (= cell_3_1 2) (= cell_3_1 3) (= cell_3_1 4) $x8970 (= cell_3_1 6) (= cell_3_1 7) $x3773 $x8925)))))
(assert
 (let (($x8069 (= cell_4_1 9)))
 (or (= cell_4_1 1) (= cell_4_1 2) (= cell_4_1 3) (= cell_4_1 4) (= cell_4_1 5) (= cell_4_1 6) (= cell_4_1 7) (= cell_4_1 8) $x8069)))
(assert
 (let (($x9497 (= cell_5_1 9)))
 (or (= cell_5_1 1) (= cell_5_1 2) (= cell_5_1 3) (= cell_5_1 4) (= cell_5_1 5) (= cell_5_1 6) (= cell_5_1 7) (= cell_5_1 8) $x9497)))
(assert
 (let (($x1631 (= cell_6_1 9)))
 (or (= cell_6_1 1) (= cell_6_1 2) (= cell_6_1 3) (= cell_6_1 4) (= cell_6_1 5) (= cell_6_1 6) (= cell_6_1 7) (= cell_6_1 8) $x1631)))
(assert
 (let (($x10177 (= cell_7_1 9)))
 (or (= cell_7_1 1) (= cell_7_1 2) (= cell_7_1 3) (= cell_7_1 4) (= cell_7_1 5) (= cell_7_1 6) (= cell_7_1 7) (= cell_7_1 8) $x10177)))
(assert
 (let (($x6747 (= cell_8_1 9)))
 (let (($x2742 (= cell_8_1 7)))
 (or (= cell_8_1 1) (= cell_8_1 2) (= cell_8_1 3) (= cell_8_1 4) (= cell_8_1 5) (= cell_8_1 6) $x2742 (= cell_8_1 8) $x6747))))
(assert
 (let (($x5420 (= cell_9_1 9)))
 (or (= cell_9_1 1) (= cell_9_1 2) (= cell_9_1 3) (= cell_9_1 4) (= cell_9_1 5) (= cell_9_1 6) (= cell_9_1 7) (= cell_9_1 8) $x5420)))
(assert
 (let (($x1426 (= cell_1_2 5)))
 (or (= cell_1_2 1) (= cell_1_2 2) (= cell_1_2 3) (= cell_1_2 4) $x1426 (= cell_1_2 6) (= cell_1_2 7) (= cell_1_2 8) (= cell_1_2 9))))
(assert
 (let (($x1238 (= cell_2_2 9)))
 (let (($x4524 (= cell_2_2 8)))
 (let (($x7050 (= cell_2_2 5)))
 (or (= cell_2_2 1) (= cell_2_2 2) (= cell_2_2 3) (= cell_2_2 4) $x7050 (= cell_2_2 6) (= cell_2_2 7) $x4524 $x1238)))))
(assert
 (let (($x3490 (= cell_3_2 9)))
 (let (($x4412 (= cell_3_2 8)))
 (let (($x9889 (= cell_3_2 5)))
 (or (= cell_3_2 1) (= cell_3_2 2) (= cell_3_2 3) (= cell_3_2 4) $x9889 (= cell_3_2 6) (= cell_3_2 7) $x4412 $x3490)))))
(assert
 (let (($x2724 (= cell_4_2 5)))
 (let (($x254 (= cell_4_2 3)))
 (or (= cell_4_2 1) (= cell_4_2 2) $x254 (= cell_4_2 4) $x2724 (= cell_4_2 6) (= cell_4_2 7) (= cell_4_2 8) (= cell_4_2 9)))))
(assert
 (let (($x7426 (= cell_5_2 5)))
 (or (= cell_5_2 1) (= cell_5_2 2) (= cell_5_2 3) (= cell_5_2 4) $x7426 (= cell_5_2 6) (= cell_5_2 7) (= cell_5_2 8) (= cell_5_2 9))))
(assert
 (let (($x2830 (= cell_6_2 5)))
 (or (= cell_6_2 1) (= cell_6_2 2) (= cell_6_2 3) (= cell_6_2 4) $x2830 (= cell_6_2 6) (= cell_6_2 7) (= cell_6_2 8) (= cell_6_2 9))))
(assert
 (let (($x84 (= cell_7_2 7)))
 (let (($x9516 (= cell_7_2 5)))
 (or (= cell_7_2 1) (= cell_7_2 2) (= cell_7_2 3) (= cell_7_2 4) $x9516 (= cell_7_2 6) $x84 (= cell_7_2 8) (= cell_7_2 9)))))
(assert
 (let (($x4968 (= cell_8_2 5)))
 (or (= cell_8_2 1) (= cell_8_2 2) (= cell_8_2 3) (= cell_8_2 4) $x4968 (= cell_8_2 6) (= cell_8_2 7) (= cell_8_2 8) (= cell_8_2 9))))
(assert
 (let (($x9403 (= cell_9_2 5)))
 (or (= cell_9_2 1) (= cell_9_2 2) (= cell_9_2 3) (= cell_9_2 4) $x9403 (= cell_9_2 6) (= cell_9_2 7) (= cell_9_2 8) (= cell_9_2 9))))
(assert
 (let (($x4205 (= cell_1_3 8)))
 (or (= cell_1_3 1) (= cell_1_3 2) (= cell_1_3 3) (= cell_1_3 4) (= cell_1_3 5) (= cell_1_3 6) (= cell_1_3 7) $x4205 (= cell_1_3 9))))
(assert
 (let (($x1614 (= cell_2_3 9)))
 (let (($x1922 (= cell_2_3 8)))
 (let (($x4170 (= cell_2_3 5)))
 (or (= cell_2_3 1) (= cell_2_3 2) (= cell_2_3 3) (= cell_2_3 4) $x4170 (= cell_2_3 6) (= cell_2_3 7) $x1922 $x1614)))))
(assert
 (let (($x4430 (= cell_3_3 9)))
 (let (($x8932 (= cell_3_3 8)))
 (let (($x1920 (= cell_3_3 5)))
 (let (($x2386 (= cell_3_3 3)))
 (or (= cell_3_3 1) (= cell_3_3 2) $x2386 (= cell_3_3 4) $x1920 (= cell_3_3 6) (= cell_3_3 7) $x8932 $x4430))))))
(assert
 (let (($x1163 (= cell_4_3 8)))
 (or (= cell_4_3 1) (= cell_4_3 2) (= cell_4_3 3) (= cell_4_3 4) (= cell_4_3 5) (= cell_4_3 6) (= cell_4_3 7) $x1163 (= cell_4_3 9))))
(assert
 (let (($x5451 (= cell_5_3 8)))
 (or (= cell_5_3 1) (= cell_5_3 2) (= cell_5_3 3) (= cell_5_3 4) (= cell_5_3 5) (= cell_5_3 6) (= cell_5_3 7) $x5451 (= cell_5_3 9))))
(assert
 (let (($x5634 (= cell_6_3 8)))
 (let (($x5953 (= cell_6_3 7)))
 (or (= cell_6_3 1) (= cell_6_3 2) (= cell_6_3 3) (= cell_6_3 4) (= cell_6_3 5) (= cell_6_3 6) $x5953 $x5634 (= cell_6_3 9)))))
(assert
 (let (($x2387 (= cell_7_3 8)))
 (or (= cell_7_3 1) (= cell_7_3 2) (= cell_7_3 3) (= cell_7_3 4) (= cell_7_3 5) (= cell_7_3 6) (= cell_7_3 7) $x2387 (= cell_7_3 9))))
(assert
 (let (($x2001 (= cell_8_3 8)))
 (or (= cell_8_3 1) (= cell_8_3 2) (= cell_8_3 3) (= cell_8_3 4) (= cell_8_3 5) (= cell_8_3 6) (= cell_8_3 7) $x2001 (= cell_8_3 9))))
(assert
 (let (($x3143 (= cell_9_3 8)))
 (or (= cell_9_3 1) (= cell_9_3 2) (= cell_9_3 3) (= cell_9_3 4) (= cell_9_3 5) (= cell_9_3 6) (= cell_9_3 7) $x3143 (= cell_9_3 9))))
(assert
 (let (($x7383 (= cell_1_4 1)))
 (or $x7383 (= cell_1_4 2) (= cell_1_4 3) (= cell_1_4 4) (= cell_1_4 5) (= cell_1_4 6) (= cell_1_4 7) (= cell_1_4 8) (= cell_1_4 9))))
(assert
 (let (($x8113 (= cell_2_4 6)))
 (let (($x625 (= cell_2_4 3)))
 (let (($x6033 (= cell_2_4 1)))
 (or $x6033 (= cell_2_4 2) $x625 (= cell_2_4 4) (= cell_2_4 5) $x8113 (= cell_2_4 7) (= cell_2_4 8) (= cell_2_4 9))))))
(assert
 (let (($x1995 (= cell_3_4 6)))
 (let (($x3239 (= cell_3_4 5)))
 (let (($x9071 (= cell_3_4 3)))
 (let (($x8483 (= cell_3_4 1)))
 (or $x8483 (= cell_3_4 2) $x9071 (= cell_3_4 4) $x3239 $x1995 (= cell_3_4 7) (= cell_3_4 8) (= cell_3_4 9)))))))
(assert
 (let (($x1877 (= cell_4_4 1)))
 (or $x1877 (= cell_4_4 2) (= cell_4_4 3) (= cell_4_4 4) (= cell_4_4 5) (= cell_4_4 6) (= cell_4_4 7) (= cell_4_4 8) (= cell_4_4 9))))
(assert
 (let (($x2920 (= cell_5_4 7)))
 (let (($x7972 (= cell_5_4 1)))
 (or $x7972 (= cell_5_4 2) (= cell_5_4 3) (= cell_5_4 4) (= cell_5_4 5) (= cell_5_4 6) $x2920 (= cell_5_4 8) (= cell_5_4 9)))))
(assert
 (let (($x402 (= cell_6_4 1)))
 (or $x402 (= cell_6_4 2) (= cell_6_4 3) (= cell_6_4 4) (= cell_6_4 5) (= cell_6_4 6) (= cell_6_4 7) (= cell_6_4 8) (= cell_6_4 9))))
(assert
 (let (($x1840 (= cell_7_4 1)))
 (or $x1840 (= cell_7_4 2) (= cell_7_4 3) (= cell_7_4 4) (= cell_7_4 5) (= cell_7_4 6) (= cell_7_4 7) (= cell_7_4 8) (= cell_7_4 9))))
(assert
 (let (($x9078 (= cell_8_4 1)))
 (or $x9078 (= cell_8_4 2) (= cell_8_4 3) (= cell_8_4 4) (= cell_8_4 5) (= cell_8_4 6) (= cell_8_4 7) (= cell_8_4 8) (= cell_8_4 9))))
(assert
 (let (($x6579 (= cell_9_4 1)))
 (or $x6579 (= cell_9_4 2) (= cell_9_4 3) (= cell_9_4 4) (= cell_9_4 5) (= cell_9_4 6) (= cell_9_4 7) (= cell_9_4 8) (= cell_9_4 9))))
(assert
 (let (($x5006 (= cell_1_5 3)))
 (or (= cell_1_5 1) (= cell_1_5 2) $x5006 (= cell_1_5 4) (= cell_1_5 5) (= cell_1_5 6) (= cell_1_5 7) (= cell_1_5 8) (= cell_1_5 9))))
(assert
 (let (($x2847 (= cell_2_5 6)))
 (let (($x48 (= cell_2_5 3)))
 (let (($x500 (= cell_2_5 1)))
 (or $x500 (= cell_2_5 2) $x48 (= cell_2_5 4) (= cell_2_5 5) $x2847 (= cell_2_5 7) (= cell_2_5 8) (= cell_2_5 9))))))
(assert
 (let (($x10143 (= cell_3_5 6)))
 (let (($x7332 (= cell_3_5 3)))
 (let (($x4743 (= cell_3_5 1)))
 (or $x4743 (= cell_3_5 2) $x7332 (= cell_3_5 4) (= cell_3_5 5) $x10143 (= cell_3_5 7) (= cell_3_5 8) (= cell_3_5 9))))))
(assert
 (let (($x1604 (= cell_4_5 7)))
 (let (($x3284 (= cell_4_5 5)))
 (let (($x468 (= cell_4_5 3)))
 (or (= cell_4_5 1) (= cell_4_5 2) $x468 (= cell_4_5 4) $x3284 (= cell_4_5 6) $x1604 (= cell_4_5 8) (= cell_4_5 9))))))
(assert
 (let (($x2606 (= cell_5_5 3)))
 (or (= cell_5_5 1) (= cell_5_5 2) $x2606 (= cell_5_5 4) (= cell_5_5 5) (= cell_5_5 6) (= cell_5_5 7) (= cell_5_5 8) (= cell_5_5 9))))
(assert
 (let (($x2758 (= cell_6_5 3)))
 (or (= cell_6_5 1) (= cell_6_5 2) $x2758 (= cell_6_5 4) (= cell_6_5 5) (= cell_6_5 6) (= cell_6_5 7) (= cell_6_5 8) (= cell_6_5 9))))
(assert
 (let (($x2753 (= cell_7_5 3)))
 (or (= cell_7_5 1) (= cell_7_5 2) $x2753 (= cell_7_5 4) (= cell_7_5 5) (= cell_7_5 6) (= cell_7_5 7) (= cell_7_5 8) (= cell_7_5 9))))
(assert
 (let (($x1450 (= cell_8_5 3)))
 (or (= cell_8_5 1) (= cell_8_5 2) $x1450 (= cell_8_5 4) (= cell_8_5 5) (= cell_8_5 6) (= cell_8_5 7) (= cell_8_5 8) (= cell_8_5 9))))
(assert
 (let (($x9995 (= cell_9_5 3)))
 (or (= cell_9_5 1) (= cell_9_5 2) $x9995 (= cell_9_5 4) (= cell_9_5 5) (= cell_9_5 6) (= cell_9_5 7) (= cell_9_5 8) (= cell_9_5 9))))
(assert
 (let (($x1068 (= cell_1_6 6)))
 (or (= cell_1_6 1) (= cell_1_6 2) (= cell_1_6 3) (= cell_1_6 4) (= cell_1_6 5) $x1068 (= cell_1_6 7) (= cell_1_6 8) (= cell_1_6 9))))
(assert
 (let (($x356 (= cell_2_6 6)))
 (let (($x9473 (= cell_2_6 3)))
 (let (($x9858 (= cell_2_6 1)))
 (or $x9858 (= cell_2_6 2) $x9473 (= cell_2_6 4) (= cell_2_6 5) $x356 (= cell_2_6 7) (= cell_2_6 8) (= cell_2_6 9))))))
(assert
 (let (($x3524 (= cell_3_6 7)))
 (let (($x1264 (= cell_3_6 6)))
 (let (($x4855 (= cell_3_6 3)))
 (let (($x2367 (= cell_3_6 1)))
 (or $x2367 (= cell_3_6 2) $x4855 (= cell_3_6 4) (= cell_3_6 5) $x1264 $x3524 (= cell_3_6 8) (= cell_3_6 9)))))))
(assert
 (let (($x4083 (= cell_4_6 6)))
 (or (= cell_4_6 1) (= cell_4_6 2) (= cell_4_6 3) (= cell_4_6 4) (= cell_4_6 5) $x4083 (= cell_4_6 7) (= cell_4_6 8) (= cell_4_6 9))))
(assert
 (let (($x8371 (= cell_5_6 6)))
 (let (($x3810 (= cell_5_6 5)))
 (or (= cell_5_6 1) (= cell_5_6 2) (= cell_5_6 3) (= cell_5_6 4) $x3810 $x8371 (= cell_5_6 7) (= cell_5_6 8) (= cell_5_6 9)))))
(assert
 (let (($x8466 (= cell_6_6 6)))
 (or (= cell_6_6 1) (= cell_6_6 2) (= cell_6_6 3) (= cell_6_6 4) (= cell_6_6 5) $x8466 (= cell_6_6 7) (= cell_6_6 8) (= cell_6_6 9))))
(assert
 (let (($x9063 (= cell_7_6 6)))
 (or (= cell_7_6 1) (= cell_7_6 2) (= cell_7_6 3) (= cell_7_6 4) (= cell_7_6 5) $x9063 (= cell_7_6 7) (= cell_7_6 8) (= cell_7_6 9))))
(assert
 (let (($x3814 (= cell_8_6 6)))
 (or (= cell_8_6 1) (= cell_8_6 2) (= cell_8_6 3) (= cell_8_6 4) (= cell_8_6 5) $x3814 (= cell_8_6 7) (= cell_8_6 8) (= cell_8_6 9))))
(assert
 (let (($x5649 (= cell_9_6 6)))
 (or (= cell_9_6 1) (= cell_9_6 2) (= cell_9_6 3) (= cell_9_6 4) (= cell_9_6 5) $x5649 (= cell_9_6 7) (= cell_9_6 8) (= cell_9_6 9))))
(assert
 (let (($x7764 (= cell_1_7 4)))
 (or (= cell_1_7 1) (= cell_1_7 2) (= cell_1_7 3) $x7764 (= cell_1_7 5) (= cell_1_7 6) (= cell_1_7 7) (= cell_1_7 8) (= cell_1_7 9))))
(assert
 (let (($x7848 (= cell_2_7 7)))
 (let (($x3300 (= cell_2_7 4)))
 (let (($x9776 (= cell_2_7 2)))
 (or (= cell_2_7 1) $x9776 (= cell_2_7 3) $x3300 (= cell_2_7 5) (= cell_2_7 6) $x7848 (= cell_2_7 8) (= cell_2_7 9))))))
(assert
 (let (($x9331 (= cell_3_7 7)))
 (let (($x9868 (= cell_3_7 4)))
 (let (($x5053 (= cell_3_7 3)))
 (let (($x8549 (= cell_3_7 2)))
 (or (= cell_3_7 1) $x8549 $x5053 $x9868 (= cell_3_7 5) (= cell_3_7 6) $x9331 (= cell_3_7 8) (= cell_3_7 9)))))))
(assert
 (let (($x6645 (= cell_4_7 4)))
 (or (= cell_4_7 1) (= cell_4_7 2) (= cell_4_7 3) $x6645 (= cell_4_7 5) (= cell_4_7 6) (= cell_4_7 7) (= cell_4_7 8) (= cell_4_7 9))))
(assert
 (let (($x2889 (= cell_5_7 4)))
 (or (= cell_5_7 1) (= cell_5_7 2) (= cell_5_7 3) $x2889 (= cell_5_7 5) (= cell_5_7 6) (= cell_5_7 7) (= cell_5_7 8) (= cell_5_7 9))))
(assert
 (let (($x1527 (= cell_6_7 5)))
 (let (($x3286 (= cell_6_7 4)))
 (or (= cell_6_7 1) (= cell_6_7 2) (= cell_6_7 3) $x3286 $x1527 (= cell_6_7 6) (= cell_6_7 7) (= cell_6_7 8) (= cell_6_7 9)))))
(assert
 (let (($x4741 (= cell_7_7 4)))
 (or (= cell_7_7 1) (= cell_7_7 2) (= cell_7_7 3) $x4741 (= cell_7_7 5) (= cell_7_7 6) (= cell_7_7 7) (= cell_7_7 8) (= cell_7_7 9))))
(assert
 (let (($x6301 (= cell_8_7 4)))
 (or (= cell_8_7 1) (= cell_8_7 2) (= cell_8_7 3) $x6301 (= cell_8_7 5) (= cell_8_7 6) (= cell_8_7 7) (= cell_8_7 8) (= cell_8_7 9))))
(assert
 (let (($x3532 (= cell_9_7 4)))
 (or (= cell_9_7 1) (= cell_9_7 2) (= cell_9_7 3) $x3532 (= cell_9_7 5) (= cell_9_7 6) (= cell_9_7 7) (= cell_9_7 8) (= cell_9_7 9))))
(assert
 (let (($x9648 (= cell_1_8 7)))
 (or (= cell_1_8 1) (= cell_1_8 2) (= cell_1_8 3) (= cell_1_8 4) (= cell_1_8 5) (= cell_1_8 6) $x9648 (= cell_1_8 8) (= cell_1_8 9))))
(assert
 (let (($x5394 (= cell_2_8 7)))
 (let (($x2609 (= cell_2_8 4)))
 (let (($x6664 (= cell_2_8 2)))
 (or (= cell_2_8 1) $x6664 (= cell_2_8 3) $x2609 (= cell_2_8 5) (= cell_2_8 6) $x5394 (= cell_2_8 8) (= cell_2_8 9))))))
(assert
 (let (($x4773 (= cell_3_8 7)))
 (let (($x1589 (= cell_3_8 4)))
 (let (($x9943 (= cell_3_8 2)))
 (or (= cell_3_8 1) $x9943 (= cell_3_8 3) $x1589 (= cell_3_8 5) (= cell_3_8 6) $x4773 (= cell_3_8 8) (= cell_3_8 9))))))
(assert
 (let (($x3430 (= cell_4_8 7)))
 (let (($x2761 (= cell_4_8 3)))
 (or (= cell_4_8 1) (= cell_4_8 2) $x2761 (= cell_4_8 4) (= cell_4_8 5) (= cell_4_8 6) $x3430 (= cell_4_8 8) (= cell_4_8 9)))))
(assert
 (let (($x7301 (= cell_5_8 7)))
 (or (= cell_5_8 1) (= cell_5_8 2) (= cell_5_8 3) (= cell_5_8 4) (= cell_5_8 5) (= cell_5_8 6) $x7301 (= cell_5_8 8) (= cell_5_8 9))))
(assert
 (let (($x963 (= cell_6_8 7)))
 (or (= cell_6_8 1) (= cell_6_8 2) (= cell_6_8 3) (= cell_6_8 4) (= cell_6_8 5) (= cell_6_8 6) $x963 (= cell_6_8 8) (= cell_6_8 9))))
(assert
 (let (($x9680 (= cell_7_8 7)))
 (let (($x5805 (= cell_7_8 5)))
 (or (= cell_7_8 1) (= cell_7_8 2) (= cell_7_8 3) (= cell_7_8 4) $x5805 (= cell_7_8 6) $x9680 (= cell_7_8 8) (= cell_7_8 9)))))
(assert
 (let (($x3911 (= cell_8_8 7)))
 (or (= cell_8_8 1) (= cell_8_8 2) (= cell_8_8 3) (= cell_8_8 4) (= cell_8_8 5) (= cell_8_8 6) $x3911 (= cell_8_8 8) (= cell_8_8 9))))
(assert
 (let (($x7747 (= cell_9_8 7)))
 (or (= cell_9_8 1) (= cell_9_8 2) (= cell_9_8 3) (= cell_9_8 4) (= cell_9_8 5) (= cell_9_8 6) $x7747 (= cell_9_8 8) (= cell_9_8 9))))
(assert
 (let (($x921 (= cell_1_9 2)))
 (or (= cell_1_9 1) $x921 (= cell_1_9 3) (= cell_1_9 4) (= cell_1_9 5) (= cell_1_9 6) (= cell_1_9 7) (= cell_1_9 8) (= cell_1_9 9))))
(assert
 (let (($x523 (= cell_2_9 7)))
 (let (($x2877 (= cell_2_9 4)))
 (let (($x2797 (= cell_2_9 2)))
 (or (= cell_2_9 1) $x2797 (= cell_2_9 3) $x2877 (= cell_2_9 5) (= cell_2_9 6) $x523 (= cell_2_9 8) (= cell_2_9 9))))))
(assert
 (let (($x157 (= cell_3_9 7)))
 (let (($x5292 (= cell_3_9 4)))
 (let (($x2743 (= cell_3_9 2)))
 (or (= cell_3_9 1) $x2743 (= cell_3_9 3) $x5292 (= cell_3_9 5) (= cell_3_9 6) $x157 (= cell_3_9 8) (= cell_3_9 9))))))
(assert
 (let (($x3086 (= cell_4_9 2)))
 (or (= cell_4_9 1) $x3086 (= cell_4_9 3) (= cell_4_9 4) (= cell_4_9 5) (= cell_4_9 6) (= cell_4_9 7) (= cell_4_9 8) (= cell_4_9 9))))
(assert
 (let (($x2880 (= cell_5_9 2)))
 (or (= cell_5_9 1) $x2880 (= cell_5_9 3) (= cell_5_9 4) (= cell_5_9 5) (= cell_5_9 6) (= cell_5_9 7) (= cell_5_9 8) (= cell_5_9 9))))
(assert
 (let (($x2611 (= cell_6_9 2)))
 (or (= cell_6_9 1) $x2611 (= cell_6_9 3) (= cell_6_9 4) (= cell_6_9 5) (= cell_6_9 6) (= cell_6_9 7) (= cell_6_9 8) (= cell_6_9 9))))
(assert
 (let (($x8534 (= cell_7_9 2)))
 (or (= cell_7_9 1) $x8534 (= cell_7_9 3) (= cell_7_9 4) (= cell_7_9 5) (= cell_7_9 6) (= cell_7_9 7) (= cell_7_9 8) (= cell_7_9 9))))
(assert
 (let (($x7636 (= cell_8_9 5)))
 (let (($x990 (= cell_8_9 2)))
 (or (= cell_8_9 1) $x990 (= cell_8_9 3) (= cell_8_9 4) $x7636 (= cell_8_9 6) (= cell_8_9 7) (= cell_8_9 8) (= cell_8_9 9)))))
(assert
 (let (($x4265 (= cell_9_9 2)))
 (or (= cell_9_9 1) $x4265 (= cell_9_9 3) (= cell_9_9 4) (= cell_9_9 5) (= cell_9_9 6) (= cell_9_9 7) (= cell_9_9 8) (= cell_9_9 9))))
(assert
 (and (distinct cell_1_1 cell_1_2 cell_1_3 cell_1_4 cell_1_5 cell_1_6 cell_1_7 cell_1_8 cell_1_9) true))
(assert
 (and (distinct cell_2_1 cell_2_2 cell_2_3 cell_2_4 cell_2_5 cell_2_6 cell_2_7 cell_2_8 cell_2_9) true))
(assert
 (and (distinct cell_3_1 cell_3_2 cell_3_3 cell_3_4 cell_3_5 cell_3_6 cell_3_7 cell_3_8 cell_3_9) true))
(assert
 (and (distinct cell_4_1 cell_4_2 cell_4_3 cell_4_4 cell_4_5 cell_4_6 cell_4_7 cell_4_8 cell_4_9) true))
(assert
 (and (distinct cell_5_1 cell_5_2 cell_5_3 cell_5_4 cell_5_5 cell_5_6 cell_5_7 cell_5_8 cell_5_9) true))
(assert
 (and (distinct cell_6_1 cell_6_2 cell_6_3 cell_6_4 cell_6_5 cell_6_6 cell_6_7 cell_6_8 cell_6_9) true))
(assert
 (and (distinct cell_7_1 cell_7_2 cell_7_3 cell_7_4 cell_7_5 cell_7_6 cell_7_7 cell_7_8 cell_7_9) true))
(assert
 (and (distinct cell_8_1 cell_8_2 cell_8_3 cell_8_4 cell_8_5 cell_8_6 cell_8_7 cell_8_8 cell_8_9) true))
(assert
 (and (distinct cell_9_1 cell_9_2 cell_9_3 cell_9_4 cell_9_5 cell_9_6 cell_9_7 cell_9_8 cell_9_9) true))
(assert
 (and (distinct cell_1_1 cell_2_1 cell_3_1 cell_4_1 cell_5_1 cell_6_1 cell_7_1 cell_8_1 cell_9_1) true))
(assert
 (and (distinct cell_1_2 cell_2_2 cell_3_2 cell_4_2 cell_5_2 cell_6_2 cell_7_2 cell_8_2 cell_9_2) true))
(assert
 (and (distinct cell_1_3 cell_2_3 cell_3_3 cell_4_3 cell_5_3 cell_6_3 cell_7_3 cell_8_3 cell_9_3) true))
(assert
 (and (distinct cell_1_4 cell_2_4 cell_3_4 cell_4_4 cell_5_4 cell_6_4 cell_7_4 cell_8_4 cell_9_4) true))
(assert
 (and (distinct cell_1_5 cell_2_5 cell_3_5 cell_4_5 cell_5_5 cell_6_5 cell_7_5 cell_8_5 cell_9_5) true))
(assert
 (and (distinct cell_1_6 cell_2_6 cell_3_6 cell_4_6 cell_5_6 cell_6_6 cell_7_6 cell_8_6 cell_9_6) true))
(assert
 (and (distinct cell_1_7 cell_2_7 cell_3_7 cell_4_7 cell_5_7 cell_6_7 cell_7_7 cell_8_7 cell_9_7) true))
(assert
 (and (distinct cell_1_8 cell_2_8 cell_3_8 cell_4_8 cell_5_8 cell_6_8 cell_7_8 cell_8_8 cell_9_8) true))
(assert
 (and (distinct cell_1_9 cell_2_9 cell_3_9 cell_4_9 cell_5_9 cell_6_9 cell_7_9 cell_8_9 cell_9_9) true))
(assert
 (and (distinct cell_1_1 cell_1_2 cell_1_3 cell_2_1 cell_2_2 cell_2_3 cell_3_1 cell_3_2 cell_3_3) true))
(assert
 (and (distinct cell_1_4 cell_1_5 cell_1_6 cell_2_4 cell_2_5 cell_2_6 cell_3_4 cell_3_5 cell_3_6) true))
(assert
 (and (distinct cell_1_7 cell_1_8 cell_1_9 cell_2_7 cell_2_8 cell_2_9 cell_3_7 cell_3_8 cell_3_9) true))
(assert
 (and (distinct cell_4_1 cell_4_2 cell_4_3 cell_5_1 cell_5_2 cell_5_3 cell_6_1 cell_6_2 cell_6_3) true))
(assert
 (and (distinct cell_4_4 cell_4_5 cell_4_6 cell_5_4 cell_5_5 cell_5_6 cell_6_4 cell_6_5 cell_6_6) true))
(assert
 (and (distinct cell_4_7 cell_4_8 cell_4_9 cell_5_7 cell_5_8 cell_5_9 cell_6_7 cell_6_8 cell_6_9) true))
(assert
 (and (distinct cell_7_1 cell_7_2 cell_7_3 cell_8_1 cell_8_2 cell_8_3 cell_9_1 cell_9_2 cell_9_3) true))
(assert
 (and (distinct cell_7_4 cell_7_5 cell_7_6 cell_8_4 cell_8_5 cell_8_6 cell_9_4 cell_9_5 cell_9_6) true))
(assert
 (and (distinct cell_7_7 cell_7_8 cell_7_9 cell_8_7 cell_8_8 cell_8_9 cell_9_7 cell_9_8 cell_9_9) true))
(assert
 (let (($x3714 (and (distinct cell_5_9 cell_6_8 cell_7_7 cell_8_6) true)))
 (let (($x1606 (and (distinct cell_2_9 cell_3_8 cell_4_7 cell_5_6 cell_6_5 cell_7_4 cell_8_3 cell_9_2) true)))
 (let (($x7313 (and (distinct cell_1_8 cell_2_7 cell_3_6 cell_4_5 cell_5_4 cell_6_3 cell_7_2 cell_8_1) true)))
 (let (($x8897 (and (distinct cell_1_5 cell_2_4 cell_3_3 cell_4_2) true)))
 (let (($x8216 (and (distinct cell_5_1 cell_6_2 cell_7_3 cell_8_4) true)))
 (let (($x3847 (and (distinct cell_2_1 cell_3_2 cell_4_3 cell_5_4 cell_6_5 cell_7_6 cell_8_7 cell_9_8) true)))
 (let (($x7143 (and (distinct cell_1_2 cell_2_3 cell_3_4 cell_4_5 cell_5_6 cell_6_7 cell_7_8 cell_8_9) true)))
 (let (($x9425 (and (distinct cell_1_5 cell_2_6 cell_3_7 cell_4_8) true)))
 (and $x9425 $x7143 $x3847 $x8216 $x8897 $x7313 $x1606 $x3714))))))))))
(assert
 (= cell_2_1 2))
(check-sat)
